data;

set BUSES := a1 a2 a3 a4;
set FRANJAS := s1 s2 s3;
set TALLERES := t1 t2;

param c : a1 a2 a3 a4 :=
a1 0 10 5 2
a2 10 0 3 8
a3 5 3 0 7
a4 2 8 7 0
;

param o : t1 t2 :=
s1 1 0
s2 1 1
s3 0 1
;

end;
